MARKOV
378
2 2 2 2 2 2 2 2 2 2 2 2 2 2 2 2 2 2 2 2 2 2 2 2 2 2 2 2 2 2 2 2 2 2 2 2 2 2 2 2 2 2 2 2 2 2 2 2 2 2 2 2 2 2 2 2 2 2 2 2 2 2 2 2 2 2 2 2 2 2 2 2 2 2 2 2 2 2 2 2 2 2 2 2 2 2 2 2 2 2 2 2 2 2 2 2 2 2 2 2 2 2 2 2 2 2 2 2 2 2 2 2 2 2 2 2 2 2 2 2 2 2 2 2 2 2 2 2 2 2 2 2 2 2 2 2 2 2 2 2 2 2 2 2 2 2 2 2 2 2 2 2 2 2 2 2 2 2 2 2 2 2 2 2 2 2 2 2 2 2 2 2 2 2 2 2 2 2 2 2 2 2 2 2 2 2 2 2 2 2 2 2 2 2 2 2 2 2 2 2 2 2 2 2 2 2 2 2 2 2 2 2 2 2 2 2 2 2 2 2 2 2 2 2 2 2 2 2 2 2 2 2 2 2 2 2 2 2 2 2 2 2 2 2 2 2 2 2 2 2 2 2 2 2 2 2 2 2 2 2 2 2 2 2 2 2 2 2 2 2 2 2 2 2 2 2 2 2 2 2 2 2 2 2 2 2 2 2 2 2 2 2 2 2 2 2 2 2 2 2 2 2 2 2 2 2 2 2 2 2 2 2 2 2 2 2 2 2 2 2 2 2 2 2 2 2 2 2 2 2 2 2 2 2 2 2 2 2 2 2 2 2 2 2 2 2 2 2 2 2 2 2 2 2 2 2 2 2 2 2 2 2 2 2 2 2 2 2 2 2 2 2 2 2 2 2 2 2 
378
3 377 71 142 
3 376 49 377 
3 375 97 376 
3 374 50 375 
3 373 81 374 
3 372 169 373 
3 371 35 372 
3 370 83 371 
3 369 43 370 
3 368 57 369 
3 367 39 368 
3 366 75 367 
3 365 133 366 
3 364 168 365 
3 363 131 364 
3 362 54 363 
3 361 156 362 
3 360 31 361 
3 359 99 360 
3 358 46 359 
3 357 122 358 
3 356 135 357 
3 355 112 356 
3 354 139 355 
3 353 92 354 
3 352 11 353 
3 351 140 352 
3 350 175 351 
3 349 55 350 
3 348 82 349 
3 347 4 348 
3 346 52 347 
3 345 109 346 
3 344 180 345 
3 343 165 344 
3 342 170 343 
3 341 23 342 
3 340 44 341 
3 339 141 340 
3 338 80 339 
3 337 32 338 
3 336 21 337 
3 335 111 336 
3 334 33 335 
3 333 73 334 
3 332 108 333 
3 331 91 332 
3 330 2 331 
3 329 38 330 
3 328 177 329 
3 327 164 328 
3 326 51 327 
3 325 76 326 
3 324 117 325 
3 323 58 324 
3 322 143 323 
3 321 45 322 
3 320 22 321 
3 319 155 320 
3 318 103 319 
3 317 24 318 
3 316 87 317 
3 315 127 316 
3 314 145 315 
3 313 98 314 
3 312 37 313 
3 311 63 312 
3 310 90 311 
3 309 17 310 
3 308 12 309 
3 307 42 308 
3 306 148 307 
3 305 115 306 
3 304 104 305 
3 303 47 304 
3 302 25 303 
3 301 162 302 
3 300 183 301 
3 299 147 300 
3 298 93 299 
3 297 84 298 
3 296 78 297 
3 295 157 296 
3 294 149 295 
3 293 69 294 
3 292 61 293 
3 291 158 292 
3 290 125 291 
3 289 136 290 
3 288 72 289 
3 287 14 288 
3 286 163 287 
3 285 27 286 
3 284 19 285 
3 283 105 284 
3 282 154 283 
3 281 119 282 
3 280 137 281 
3 279 166 280 
3 278 53 279 
3 277 60 278 
3 276 67 277 
3 275 130 276 
3 274 100 275 
3 273 30 274 
3 272 152 273 
3 271 138 272 
3 270 179 271 
3 269 8 270 
3 268 173 269 
3 267 29 268 
3 266 181 267 
3 265 159 266 
3 264 161 265 
3 263 121 264 
3 262 94 263 
3 261 106 262 
3 260 132 261 
3 259 13 260 
3 258 101 259 
3 257 107 258 
3 256 110 257 
3 255 77 256 
3 254 0 255 
3 253 160 254 
3 252 10 253 
3 251 88 252 
3 250 134 251 
3 249 36 250 
3 248 128 249 
3 247 6 248 
3 246 64 247 
3 245 89 246 
3 244 86 245 
3 243 153 244 
3 242 174 243 
3 241 120 242 
3 240 182 241 
3 239 9 240 
3 238 28 239 
3 237 124 238 
3 236 118 237 
3 235 116 236 
3 234 96 235 
3 233 15 234 
3 232 40 233 
3 231 16 232 
3 230 178 231 
3 229 62 230 
3 228 186 229 
3 227 74 228 
3 226 41 227 
3 225 171 226 
3 224 172 225 
2 184 224 
3 223 71 144 
3 222 18 223 
3 221 5 222 
3 220 95 221 
3 219 59 220 
3 218 185 219 
3 217 69 218 
3 216 7 217 
3 215 48 216 
3 214 3 215 
3 213 1 214 
3 212 72 213 
3 211 113 212 
3 210 20 211 
3 209 56 210 
3 208 123 209 
3 207 129 208 
3 206 34 207 
3 205 53 206 
3 204 26 205 
3 203 82 204 
3 202 146 203 
3 201 151 202 
3 200 70 201 
3 199 79 200 
3 198 179 199 
3 197 102 198 
3 196 141 197 
3 195 150 196 
3 194 176 195 
3 193 126 194 
3 192 68 193 
3 191 66 192 
3 190 183 191 
3 189 65 190 
3 188 114 189 
3 187 167 188 
2 85 187 
1 142 
1 49 
1 97 
1 95 
1 83 
1 7 
1 39 
1 57 
1 133 
1 156 
1 31 
1 99 
1 135 
1 139 
1 112 
1 92 
1 175 
1 4 
1 109 
1 52 
1 165 
1 70 
1 44 
1 23 
1 33 
1 108 
1 73 
1 38 
1 5 
1 164 
1 51 
1 76 
1 143 
1 45 
1 123 
1 103 
1 87 
1 98 
1 37 
1 12 
1 148 
1 115 
1 176 
1 25 
1 68 
1 162 
1 183 
1 144 
1 69 
1 158 
1 136 
1 72 
1 27 
1 154 
1 119 
1 137 
1 166 
1 53 
1 26 
1 67 
1 100 
1 152 
1 8 
1 173 
1 29 
1 181 
1 159 
1 150 
1 161 
1 121 
1 132 
1 13 
1 160 
1 18 
1 134 
1 36 
1 128 
1 113 
1 86 
1 153 
1 56 
1 28 
1 118 
1 96 
1 40 
1 102 
1 16 
1 178 
1 62 
1 186 
1 171 
1 71 
1 50 
1 81 
1 59 
1 169 
1 35 
1 43 
1 48 
1 75 
1 131 
1 168 
1 54 
1 122 
1 46 
1 11 
1 140 
1 34 
1 55 
1 82 
1 146 
1 180 
1 170 
1 141 
1 80 
1 32 
1 111 
1 21 
1 126 
1 91 
1 2 
1 114 
1 167 
1 177 
1 117 
1 58 
1 20 
1 22 
1 155 
1 129 
1 24 
1 127 
1 145 
1 63 
1 90 
1 17 
1 42 
1 104 
1 47 
1 147 
1 93 
1 84 
1 78 
1 157 
1 149 
1 185 
1 61 
1 125 
1 3 
1 14 
1 163 
1 19 
1 105 
1 60 
1 130 
1 30 
1 79 
1 138 
1 179 
1 94 
1 106 
1 66 
1 101 
1 107 
1 110 
1 77 
1 0 
1 10 
1 88 
1 1 
1 6 
1 64 
1 89 
1 174 
1 120 
1 182 
1 9 
1 124 
1 151 
1 116 
1 15 
1 74 
1 65 
1 41 
1 172 

8
1.00000000000000 0.90000000000000 0.90000000000000 0.81000000000000 0.00000000000000 0.10000000000000 0.10000000000000 0.19000000000000 
8
1.00000000000000 0.00000000000000 0.00000000000000 0.00000000000000 0.00000000000000 1.00000000000000 1.00000000000000 1.00000000000000 
8
1.00000000000000 0.00000000000000 0.30000000000000 0.00000000000000 0.00000000000000 1.00000000000000 0.70000000000000 1.00000000000000 
8
1.00000000000000 0.00000000000000 0.05000000000000 0.00000000000000 0.00000000000000 1.00000000000000 0.95000000000000 1.00000000000000 
8
1.00000000000000 0.00000000000000 0.50000000000000 0.00000000000000 0.00000000000000 1.00000000000000 0.50000000000000 1.00000000000000 
8
1.00000000000000 0.00000000000000 0.90000000000000 0.00000000000000 0.00000000000000 1.00000000000000 0.10000000000000 1.00000000000000 
8
1.00000000000000 0.00000000000000 0.00000000000000 0.00000000000000 0.00000000000000 1.00000000000000 1.00000000000000 1.00000000000000 
8
1.00000000000000 0.00000000000000 0.50000000000000 0.00000000000000 0.00000000000000 1.00000000000000 0.50000000000000 1.00000000000000 
8
1.00000000000000 0.00000000000000 0.50000000000000 0.00000000000000 0.00000000000000 1.00000000000000 0.50000000000000 1.00000000000000 
8
1.00000000000000 0.00000000000000 0.50000000000000 0.00000000000000 0.00000000000000 1.00000000000000 0.50000000000000 1.00000000000000 
8
1.00000000000000 0.00000000000000 0.89000000000000 0.00000000000000 0.00000000000000 1.00000000000000 0.11000000000000 1.00000000000000 
8
1.00000000000000 0.00000000000000 0.90000000000000 0.00000000000000 0.00000000000000 1.00000000000000 0.10000000000000 1.00000000000000 
8
1.00000000000000 0.00000000000000 0.90000000000000 0.00000000000000 0.00000000000000 1.00000000000000 0.10000000000000 1.00000000000000 
8
1.00000000000000 0.00000000000000 0.50000000000000 0.00000000000000 0.00000000000000 1.00000000000000 0.50000000000000 1.00000000000000 
8
1.00000000000000 0.00000000000000 0.90000000000000 0.00000000000000 0.00000000000000 1.00000000000000 0.10000000000000 1.00000000000000 
8
1.00000000000000 0.00000000000000 0.90000000000000 0.00000000000000 0.00000000000000 1.00000000000000 0.10000000000000 1.00000000000000 
8
1.00000000000000 0.00000000000000 0.50000000000000 0.00000000000000 0.00000000000000 1.00000000000000 0.50000000000000 1.00000000000000 
8
1.00000000000000 0.00000000000000 0.90000000000000 0.00000000000000 0.00000000000000 1.00000000000000 0.10000000000000 1.00000000000000 
8
1.00000000000000 0.00000000000000 0.00000000000000 0.00000000000000 0.00000000000000 1.00000000000000 1.00000000000000 1.00000000000000 
8
1.00000000000000 0.00000000000000 0.89000000000000 0.00000000000000 0.00000000000000 1.00000000000000 0.11000000000000 1.00000000000000 
8
1.00000000000000 0.00000000000000 0.90000000000000 0.00000000000000 0.00000000000000 1.00000000000000 0.10000000000000 1.00000000000000 
8
1.00000000000000 0.00000000000000 0.90000000000000 0.00000000000000 0.00000000000000 1.00000000000000 0.10000000000000 1.00000000000000 
8
1.00000000000000 0.00000000000000 0.50000000000000 0.00000000000000 0.00000000000000 1.00000000000000 0.50000000000000 1.00000000000000 
8
1.00000000000000 0.00000000000000 0.05000000000000 0.00000000000000 0.00000000000000 1.00000000000000 0.95000000000000 1.00000000000000 
8
1.00000000000000 0.00000000000000 0.89000000000000 0.00000000000000 0.00000000000000 1.00000000000000 0.11000000000000 1.00000000000000 
8
1.00000000000000 0.00000000000000 0.90000000000000 0.00000000000000 0.00000000000000 1.00000000000000 0.10000000000000 1.00000000000000 
8
1.00000000000000 0.00000000000000 0.40000000000000 0.00000000000000 0.00000000000000 1.00000000000000 0.60000000000000 1.00000000000000 
8
1.00000000000000 0.00000000000000 0.90000000000000 0.00000000000000 0.00000000000000 1.00000000000000 0.10000000000000 1.00000000000000 
8
1.00000000000000 0.00000000000000 0.90000000000000 0.00000000000000 0.00000000000000 1.00000000000000 0.10000000000000 1.00000000000000 
8
1.00000000000000 0.00000000000000 0.80000000000000 0.00000000000000 0.00000000000000 1.00000000000000 0.20000000000000 1.00000000000000 
8
1.00000000000000 0.00000000000000 0.90000000000000 0.00000000000000 0.00000000000000 1.00000000000000 0.10000000000000 1.00000000000000 
8
1.00000000000000 0.00000000000000 0.94000000000000 0.00000000000000 0.00000000000000 1.00000000000000 0.06000000000000 1.00000000000000 
8
1.00000000000000 0.00000000000000 0.50000000000000 0.00000000000000 0.00000000000000 1.00000000000000 0.50000000000000 1.00000000000000 
8
1.00000000000000 0.00000000000000 0.89000000000000 0.00000000000000 0.00000000000000 1.00000000000000 0.11000000000000 1.00000000000000 
8
1.00000000000000 0.00000000000000 0.30000000000000 0.00000000000000 0.00000000000000 1.00000000000000 0.70000000000000 1.00000000000000 
8
1.00000000000000 0.00000000000000 0.02000000000000 0.00000000000000 0.00000000000000 1.00000000000000 0.98000000000000 1.00000000000000 
8
1.00000000000000 0.00000000000000 0.50000000000000 0.00000000000000 0.00000000000000 1.00000000000000 0.50000000000000 1.00000000000000 
8
1.00000000000000 0.00000000000000 0.90000000000000 0.00000000000000 0.00000000000000 1.00000000000000 0.10000000000000 1.00000000000000 
8
1.00000000000000 0.00000000000000 0.90000000000000 0.00000000000000 0.00000000000000 1.00000000000000 0.10000000000000 1.00000000000000 
8
1.00000000000000 0.00000000000000 0.30000000000000 0.00000000000000 0.00000000000000 1.00000000000000 0.70000000000000 1.00000000000000 
8
1.00000000000000 0.00000000000000 0.90000000000000 0.00000000000000 0.00000000000000 1.00000000000000 0.10000000000000 1.00000000000000 
8
1.00000000000000 0.00000000000000 0.90000000000000 0.00000000000000 0.00000000000000 1.00000000000000 0.10000000000000 1.00000000000000 
8
1.00000000000000 0.00000000000000 0.50000000000000 0.00000000000000 0.00000000000000 1.00000000000000 0.50000000000000 1.00000000000000 
8
1.00000000000000 0.00000000000000 0.30000000000000 0.00000000000000 0.00000000000000 1.00000000000000 0.70000000000000 1.00000000000000 
8
1.00000000000000 0.00000000000000 0.09000000000000 0.00000000000000 0.00000000000000 1.00000000000000 0.91000000000000 1.00000000000000 
8
1.00000000000000 0.00000000000000 0.30000000000000 0.00000000000000 0.00000000000000 1.00000000000000 0.70000000000000 1.00000000000000 
8
1.00000000000000 0.00000000000000 0.90000000000000 0.00000000000000 0.00000000000000 1.00000000000000 0.10000000000000 1.00000000000000 
8
1.00000000000000 0.00000000000000 0.90000000000000 0.00000000000000 0.00000000000000 1.00000000000000 0.10000000000000 1.00000000000000 
8
1.00000000000000 0.00000000000000 0.30000000000000 0.00000000000000 0.00000000000000 1.00000000000000 0.70000000000000 1.00000000000000 
8
1.00000000000000 0.00000000000000 0.94000000000000 0.00000000000000 0.00000000000000 1.00000000000000 0.06000000000000 1.00000000000000 
8
1.00000000000000 0.00000000000000 0.50000000000000 0.00000000000000 0.00000000000000 1.00000000000000 0.50000000000000 1.00000000000000 
8
1.00000000000000 0.00000000000000 0.90000000000000 0.00000000000000 0.00000000000000 1.00000000000000 0.10000000000000 1.00000000000000 
8
1.00000000000000 0.00000000000000 0.79000000000000 0.00000000000000 0.00000000000000 1.00000000000000 0.21000000000000 1.00000000000000 
8
1.00000000000000 0.00000000000000 0.50000000000000 0.00000000000000 0.00000000000000 1.00000000000000 0.50000000000000 1.00000000000000 
8
1.00000000000000 0.00000000000000 0.50000000000000 0.00000000000000 0.00000000000000 1.00000000000000 0.50000000000000 1.00000000000000 
8
1.00000000000000 0.00000000000000 0.90000000000000 0.00000000000000 0.00000000000000 1.00000000000000 0.10000000000000 1.00000000000000 
8
1.00000000000000 0.00000000000000 0.01000000000000 0.00000000000000 0.00000000000000 1.00000000000000 0.99000000000000 1.00000000000000 
8
1.00000000000000 0.00000000000000 0.89000000000000 0.00000000000000 0.00000000000000 1.00000000000000 0.11000000000000 1.00000000000000 
8
1.00000000000000 0.00000000000000 0.80000000000000 0.00000000000000 0.00000000000000 1.00000000000000 0.20000000000000 1.00000000000000 
8
1.00000000000000 0.00000000000000 0.30000000000000 0.00000000000000 0.00000000000000 1.00000000000000 0.70000000000000 1.00000000000000 
8
1.00000000000000 0.00000000000000 0.89000000000000 0.00000000000000 0.00000000000000 1.00000000000000 0.11000000000000 1.00000000000000 
8
1.00000000000000 0.00000000000000 0.90000000000000 0.00000000000000 0.00000000000000 1.00000000000000 0.10000000000000 1.00000000000000 
8
1.00000000000000 0.00000000000000 0.90000000000000 0.00000000000000 0.00000000000000 1.00000000000000 0.10000000000000 1.00000000000000 
8
1.00000000000000 0.00000000000000 0.85000000000000 0.00000000000000 0.00000000000000 1.00000000000000 0.15000000000000 1.00000000000000 
8
1.00000000000000 0.00000000000000 0.89000000000000 0.00000000000000 0.00000000000000 1.00000000000000 0.11000000000000 1.00000000000000 
8
1.00000000000000 0.00000000000000 0.89000000000000 0.00000000000000 0.00000000000000 1.00000000000000 0.11000000000000 1.00000000000000 
8
1.00000000000000 0.00000000000000 0.80000000000000 0.00000000000000 0.00000000000000 1.00000000000000 0.20000000000000 1.00000000000000 
8
1.00000000000000 0.00000000000000 0.89000000000000 0.00000000000000 0.00000000000000 1.00000000000000 0.11000000000000 1.00000000000000 
8
1.00000000000000 0.00000000000000 0.30000000000000 0.00000000000000 0.00000000000000 1.00000000000000 0.70000000000000 1.00000000000000 
8
1.00000000000000 0.00000000000000 0.80000000000000 0.00000000000000 0.00000000000000 1.00000000000000 0.20000000000000 1.00000000000000 
8
1.00000000000000 0.00000000000000 0.90000000000000 0.00000000000000 0.00000000000000 1.00000000000000 0.10000000000000 1.00000000000000 
8
1.00000000000000 0.00000000000000 0.90000000000000 0.00000000000000 0.00000000000000 1.00000000000000 0.10000000000000 1.00000000000000 
8
1.00000000000000 0.00000000000000 0.50000000000000 0.00000000000000 0.00000000000000 1.00000000000000 0.50000000000000 1.00000000000000 
8
1.00000000000000 0.00000000000000 0.50000000000000 0.00000000000000 0.00000000000000 1.00000000000000 0.50000000000000 1.00000000000000 
8
1.00000000000000 0.00000000000000 0.90000000000000 0.00000000000000 0.00000000000000 1.00000000000000 0.10000000000000 1.00000000000000 
8
1.00000000000000 0.00000000000000 0.80000000000000 0.00000000000000 0.00000000000000 1.00000000000000 0.20000000000000 1.00000000000000 
8
1.00000000000000 0.00000000000000 0.01000000000000 0.00000000000000 0.00000000000000 1.00000000000000 0.99000000000000 1.00000000000000 
8
1.00000000000000 0.00000000000000 0.90000000000000 0.00000000000000 0.00000000000000 1.00000000000000 0.10000000000000 1.00000000000000 
8
1.00000000000000 0.00000000000000 0.90000000000000 0.00000000000000 0.00000000000000 1.00000000000000 0.10000000000000 1.00000000000000 
8
1.00000000000000 0.00000000000000 0.80000000000000 0.00000000000000 0.00000000000000 1.00000000000000 0.20000000000000 1.00000000000000 
8
1.00000000000000 0.00000000000000 0.70000000000000 0.00000000000000 0.00000000000000 1.00000000000000 0.30000000000000 1.00000000000000 
8
1.00000000000000 0.00000000000000 0.20000000000000 0.00000000000000 0.00000000000000 1.00000000000000 0.80000000000000 1.00000000000000 
8
1.00000000000000 0.00000000000000 0.05000000000000 0.00000000000000 0.00000000000000 1.00000000000000 0.95000000000000 1.00000000000000 
8
1.00000000000000 0.00000000000000 0.80000000000000 0.00000000000000 0.00000000000000 1.00000000000000 0.20000000000000 1.00000000000000 
8
1.00000000000000 0.00000000000000 0.90000000000000 0.00000000000000 0.00000000000000 1.00000000000000 0.10000000000000 1.00000000000000 
8
1.00000000000000 0.00000000000000 0.30000000000000 0.00000000000000 0.00000000000000 1.00000000000000 0.70000000000000 1.00000000000000 
8
1.00000000000000 0.00000000000000 0.90000000000000 0.00000000000000 0.00000000000000 1.00000000000000 0.10000000000000 1.00000000000000 
8
1.00000000000000 0.00000000000000 0.90000000000000 0.00000000000000 0.00000000000000 1.00000000000000 0.10000000000000 1.00000000000000 
8
1.00000000000000 0.00000000000000 0.50000000000000 0.00000000000000 0.00000000000000 1.00000000000000 0.50000000000000 1.00000000000000 
8
1.00000000000000 0.00000000000000 0.90000000000000 0.00000000000000 0.00000000000000 1.00000000000000 0.10000000000000 1.00000000000000 
8
1.00000000000000 0.00000000000000 0.50000000000000 0.00000000000000 0.00000000000000 1.00000000000000 0.50000000000000 1.00000000000000 
8
1.00000000000000 0.00000000000000 0.00000000000000 0.00000000000000 0.00000000000000 1.00000000000000 1.00000000000000 1.00000000000000 
8
1.00000000000000 0.00000000000000 0.40000000000000 0.00000000000000 0.00000000000000 1.00000000000000 0.60000000000000 1.00000000000000 
8
1.00000000000000 0.00000000000000 0.90000000000000 0.00000000000000 0.00000000000000 1.00000000000000 0.10000000000000 1.00000000000000 
8
1.00000000000000 0.00000000000000 0.30000000000000 0.00000000000000 0.00000000000000 1.00000000000000 0.70000000000000 1.00000000000000 
8
1.00000000000000 0.00000000000000 0.80000000000000 0.00000000000000 0.00000000000000 1.00000000000000 0.20000000000000 1.00000000000000 
8
1.00000000000000 0.00000000000000 0.89000000000000 0.00000000000000 0.00000000000000 1.00000000000000 0.11000000000000 1.00000000000000 
8
1.00000000000000 0.00000000000000 0.30000000000000 0.00000000000000 0.00000000000000 1.00000000000000 0.70000000000000 1.00000000000000 
8
1.00000000000000 0.00000000000000 0.80000000000000 0.00000000000000 0.00000000000000 1.00000000000000 0.20000000000000 1.00000000000000 
8
1.00000000000000 0.00000000000000 0.61000000000000 0.00000000000000 0.00000000000000 1.00000000000000 0.39000000000000 1.00000000000000 
8
1.00000000000000 0.00000000000000 0.86000000000000 0.00000000000000 0.00000000000000 1.00000000000000 0.14000000000000 1.00000000000000 
8
1.00000000000000 0.00000000000000 0.90000000000000 0.00000000000000 0.00000000000000 1.00000000000000 0.10000000000000 1.00000000000000 
8
1.00000000000000 0.00000000000000 0.94000000000000 0.00000000000000 0.00000000000000 1.00000000000000 0.06000000000000 1.00000000000000 
8
1.00000000000000 0.00000000000000 0.30000000000000 0.00000000000000 0.00000000000000 1.00000000000000 0.70000000000000 1.00000000000000 
8
1.00000000000000 0.00000000000000 0.01000000000000 0.00000000000000 0.00000000000000 1.00000000000000 0.99000000000000 1.00000000000000 
8
1.00000000000000 0.00000000000000 0.90000000000000 0.00000000000000 0.00000000000000 1.00000000000000 0.10000000000000 1.00000000000000 
8
1.00000000000000 0.00000000000000 0.90000000000000 0.00000000000000 0.00000000000000 1.00000000000000 0.10000000000000 1.00000000000000 
8
1.00000000000000 0.00000000000000 0.90000000000000 0.00000000000000 0.00000000000000 1.00000000000000 0.10000000000000 1.00000000000000 
8
1.00000000000000 0.00000000000000 0.90000000000000 0.00000000000000 0.00000000000000 1.00000000000000 0.10000000000000 1.00000000000000 
8
1.00000000000000 0.00000000000000 0.50000000000000 0.00000000000000 0.00000000000000 1.00000000000000 0.50000000000000 1.00000000000000 
8
1.00000000000000 0.00000000000000 0.10000000000000 0.00000000000000 0.00000000000000 1.00000000000000 0.90000000000000 1.00000000000000 
8
1.00000000000000 0.00000000000000 0.90000000000000 0.00000000000000 0.00000000000000 1.00000000000000 0.10000000000000 1.00000000000000 
8
1.00000000000000 0.00000000000000 0.90000000000000 0.00000000000000 0.00000000000000 1.00000000000000 0.10000000000000 1.00000000000000 
8
1.00000000000000 0.00000000000000 0.90000000000000 0.00000000000000 0.00000000000000 1.00000000000000 0.10000000000000 1.00000000000000 
8
1.00000000000000 0.00000000000000 0.90000000000000 0.00000000000000 0.00000000000000 1.00000000000000 0.10000000000000 1.00000000000000 
8
1.00000000000000 0.00000000000000 0.00000000000000 0.00000000000000 0.00000000000000 1.00000000000000 1.00000000000000 1.00000000000000 
8
1.00000000000000 0.00000000000000 0.90000000000000 0.00000000000000 0.00000000000000 1.00000000000000 0.10000000000000 1.00000000000000 
8
1.00000000000000 0.00000000000000 0.50000000000000 0.00000000000000 0.00000000000000 1.00000000000000 0.50000000000000 1.00000000000000 
8
1.00000000000000 0.00000000000000 0.50000000000000 0.00000000000000 0.00000000000000 1.00000000000000 0.50000000000000 1.00000000000000 
8
1.00000000000000 0.00000000000000 0.10000000000000 0.00000000000000 0.00000000000000 1.00000000000000 0.90000000000000 1.00000000000000 
8
1.00000000000000 0.00000000000000 0.00000000000000 0.00000000000000 0.00000000000000 1.00000000000000 1.00000000000000 1.00000000000000 
8
1.00000000000000 0.00000000000000 0.00000000000000 0.00000000000000 0.00000000000000 1.00000000000000 1.00000000000000 1.00000000000000 
8
1.00000000000000 0.00000000000000 0.30000000000000 0.00000000000000 0.00000000000000 1.00000000000000 0.70000000000000 1.00000000000000 
8
1.00000000000000 0.00000000000000 0.50000000000000 0.00000000000000 0.00000000000000 1.00000000000000 0.50000000000000 1.00000000000000 
8
1.00000000000000 0.00000000000000 0.20000000000000 0.00000000000000 0.00000000000000 1.00000000000000 0.80000000000000 1.00000000000000 
8
1.00000000000000 0.00000000000000 0.90000000000000 0.00000000000000 0.00000000000000 1.00000000000000 0.10000000000000 1.00000000000000 
8
1.00000000000000 0.00000000000000 0.50000000000000 0.00000000000000 0.00000000000000 1.00000000000000 0.50000000000000 1.00000000000000 
8
1.00000000000000 0.00000000000000 0.89000000000000 0.00000000000000 0.00000000000000 1.00000000000000 0.11000000000000 1.00000000000000 
8
1.00000000000000 0.00000000000000 0.80000000000000 0.00000000000000 0.00000000000000 1.00000000000000 0.20000000000000 1.00000000000000 
8
1.00000000000000 0.00000000000000 0.89000000000000 0.00000000000000 0.00000000000000 1.00000000000000 0.11000000000000 1.00000000000000 
8
1.00000000000000 0.00000000000000 0.89000000000000 0.00000000000000 0.00000000000000 1.00000000000000 0.11000000000000 1.00000000000000 
8
1.00000000000000 0.00000000000000 0.89000000000000 0.00000000000000 0.00000000000000 1.00000000000000 0.11000000000000 1.00000000000000 
8
1.00000000000000 0.00000000000000 0.90000000000000 0.00000000000000 0.00000000000000 1.00000000000000 0.10000000000000 1.00000000000000 
8
1.00000000000000 0.00000000000000 0.50000000000000 0.00000000000000 0.00000000000000 1.00000000000000 0.50000000000000 1.00000000000000 
8
1.00000000000000 0.00000000000000 0.50000000000000 0.00000000000000 0.00000000000000 1.00000000000000 0.50000000000000 1.00000000000000 
8
1.00000000000000 0.00000000000000 0.30000000000000 0.00000000000000 0.00000000000000 1.00000000000000 0.70000000000000 1.00000000000000 
8
1.00000000000000 0.00000000000000 0.90000000000000 0.00000000000000 0.00000000000000 1.00000000000000 0.10000000000000 1.00000000000000 
8
1.00000000000000 0.00000000000000 0.80000000000000 0.00000000000000 0.00000000000000 1.00000000000000 0.20000000000000 1.00000000000000 
8
1.00000000000000 0.00000000000000 0.80000000000000 0.00000000000000 0.00000000000000 1.00000000000000 0.20000000000000 1.00000000000000 
8
1.00000000000000 0.00000000000000 0.50000000000000 0.00000000000000 0.00000000000000 1.00000000000000 0.50000000000000 1.00000000000000 
8
1.00000000000000 0.00000000000000 0.80000000000000 0.00000000000000 0.00000000000000 1.00000000000000 0.20000000000000 1.00000000000000 
8
1.00000000000000 0.00000000000000 0.50000000000000 0.00000000000000 0.00000000000000 1.00000000000000 0.50000000000000 1.00000000000000 
8
1.00000000000000 0.00000000000000 0.90000000000000 0.00000000000000 0.00000000000000 1.00000000000000 0.10000000000000 1.00000000000000 
8
1.00000000000000 0.00000000000000 0.00000000000000 0.00000000000000 0.00000000000000 1.00000000000000 1.00000000000000 1.00000000000000 
8
1.00000000000000 0.00000000000000 0.30000000000000 0.00000000000000 0.00000000000000 1.00000000000000 0.70000000000000 1.00000000000000 
8
1.00000000000000 0.00000000000000 0.50000000000000 0.00000000000000 0.00000000000000 1.00000000000000 0.50000000000000 1.00000000000000 
8
1.00000000000000 0.00000000000000 0.40000000000000 0.00000000000000 0.00000000000000 1.00000000000000 0.60000000000000 1.00000000000000 
8
1.00000000000000 0.00000000000000 0.80000000000000 0.00000000000000 0.00000000000000 1.00000000000000 0.20000000000000 1.00000000000000 
8
1.00000000000000 0.00000000000000 0.90000000000000 0.00000000000000 0.00000000000000 1.00000000000000 0.10000000000000 1.00000000000000 
8
1.00000000000000 0.00000000000000 0.90000000000000 0.00000000000000 0.00000000000000 1.00000000000000 0.10000000000000 1.00000000000000 
8
1.00000000000000 0.00000000000000 0.89000000000000 0.00000000000000 0.00000000000000 1.00000000000000 0.11000000000000 1.00000000000000 
8
1.00000000000000 0.00000000000000 0.90000000000000 0.00000000000000 0.00000000000000 1.00000000000000 0.10000000000000 1.00000000000000 
8
1.00000000000000 0.00000000000000 0.89000000000000 0.00000000000000 0.00000000000000 1.00000000000000 0.11000000000000 1.00000000000000 
8
1.00000000000000 0.00000000000000 0.94000000000000 0.00000000000000 0.00000000000000 1.00000000000000 0.06000000000000 1.00000000000000 
4
0.97000000000000 0.00000000000000 0.03000000000000 1.00000000000000 
8
1.00000000000000 0.50000000000000 0.50000000000000 0.25000000000000 0.00000000000000 0.50000000000000 0.50000000000000 0.75000000000000 
8
1.00000000000000 0.00000000000000 0.80000000000000 0.00000000000000 0.00000000000000 1.00000000000000 0.20000000000000 1.00000000000000 
8
1.00000000000000 0.00000000000000 0.90000000000000 0.00000000000000 0.00000000000000 1.00000000000000 0.10000000000000 1.00000000000000 
8
1.00000000000000 0.00000000000000 0.01000000000000 0.00000000000000 0.00000000000000 1.00000000000000 0.99000000000000 1.00000000000000 
8
1.00000000000000 0.00000000000000 0.60000000000000 0.00000000000000 0.00000000000000 1.00000000000000 0.40000000000000 1.00000000000000 
8
1.00000000000000 0.00000000000000 0.40000000000000 0.00000000000000 0.00000000000000 1.00000000000000 0.60000000000000 1.00000000000000 
8
1.00000000000000 0.00000000000000 0.50000000000000 0.00000000000000 0.00000000000000 1.00000000000000 0.50000000000000 1.00000000000000 
8
1.00000000000000 0.00000000000000 0.20000000000000 0.00000000000000 0.00000000000000 1.00000000000000 0.80000000000000 1.00000000000000 
8
1.00000000000000 0.00000000000000 0.50000000000000 0.00000000000000 0.00000000000000 1.00000000000000 0.50000000000000 1.00000000000000 
8
1.00000000000000 0.00000000000000 0.10000000000000 0.00000000000000 0.00000000000000 1.00000000000000 0.90000000000000 1.00000000000000 
8
1.00000000000000 0.00000000000000 0.60000000000000 0.00000000000000 0.00000000000000 1.00000000000000 0.40000000000000 1.00000000000000 
8
1.00000000000000 0.00000000000000 0.50000000000000 0.00000000000000 0.00000000000000 1.00000000000000 0.50000000000000 1.00000000000000 
8
1.00000000000000 0.00000000000000 0.10000000000000 0.00000000000000 0.00000000000000 1.00000000000000 0.90000000000000 1.00000000000000 
8
1.00000000000000 0.00000000000000 0.50000000000000 0.00000000000000 0.00000000000000 1.00000000000000 0.50000000000000 1.00000000000000 
8
1.00000000000000 0.00000000000000 0.10000000000000 0.00000000000000 0.00000000000000 1.00000000000000 0.90000000000000 1.00000000000000 
8
1.00000000000000 0.00000000000000 0.10000000000000 0.00000000000000 0.00000000000000 1.00000000000000 0.90000000000000 1.00000000000000 
8
1.00000000000000 0.00000000000000 0.50000000000000 0.00000000000000 0.00000000000000 1.00000000000000 0.50000000000000 1.00000000000000 
8
1.00000000000000 0.00000000000000 0.50000000000000 0.00000000000000 0.00000000000000 1.00000000000000 0.50000000000000 1.00000000000000 
8
1.00000000000000 0.00000000000000 0.75000000000000 0.00000000000000 0.00000000000000 1.00000000000000 0.25000000000000 1.00000000000000 
8
1.00000000000000 0.00000000000000 0.50000000000000 0.00000000000000 0.00000000000000 1.00000000000000 0.50000000000000 1.00000000000000 
8
1.00000000000000 0.00000000000000 0.50000000000000 0.00000000000000 0.00000000000000 1.00000000000000 0.50000000000000 1.00000000000000 
8
1.00000000000000 0.00000000000000 0.05000000000000 0.00000000000000 0.00000000000000 1.00000000000000 0.95000000000000 1.00000000000000 
8
1.00000000000000 0.00000000000000 0.20000000000000 0.00000000000000 0.00000000000000 1.00000000000000 0.80000000000000 1.00000000000000 
8
1.00000000000000 0.00000000000000 0.50000000000000 0.00000000000000 0.00000000000000 1.00000000000000 0.50000000000000 1.00000000000000 
8
1.00000000000000 0.00000000000000 0.50000000000000 0.00000000000000 0.00000000000000 1.00000000000000 0.50000000000000 1.00000000000000 
8
1.00000000000000 0.00000000000000 0.20000000000000 0.00000000000000 0.00000000000000 1.00000000000000 0.80000000000000 1.00000000000000 
8
1.00000000000000 0.00000000000000 0.10000000000000 0.00000000000000 0.00000000000000 1.00000000000000 0.90000000000000 1.00000000000000 
8
1.00000000000000 0.00000000000000 0.50000000000000 0.00000000000000 0.00000000000000 1.00000000000000 0.50000000000000 1.00000000000000 
8
1.00000000000000 0.00000000000000 0.50000000000000 0.00000000000000 0.00000000000000 1.00000000000000 0.50000000000000 1.00000000000000 
8
1.00000000000000 0.00000000000000 0.05000000000000 0.00000000000000 0.00000000000000 1.00000000000000 0.95000000000000 1.00000000000000 
8
1.00000000000000 0.00000000000000 0.30000000000000 0.00000000000000 0.00000000000000 1.00000000000000 0.70000000000000 1.00000000000000 
8
1.00000000000000 0.00000000000000 0.50000000000000 0.00000000000000 0.00000000000000 1.00000000000000 0.50000000000000 1.00000000000000 
8
1.00000000000000 0.00000000000000 0.01000000000000 0.00000000000000 0.00000000000000 1.00000000000000 0.99000000000000 1.00000000000000 
8
1.00000000000000 0.00000000000000 0.50000000000000 0.00000000000000 0.00000000000000 1.00000000000000 0.50000000000000 1.00000000000000 
8
1.00000000000000 0.00000000000000 0.50000000000000 0.00000000000000 0.00000000000000 1.00000000000000 0.50000000000000 1.00000000000000 
8
1.00000000000000 0.00000000000000 0.50000000000000 0.00000000000000 0.00000000000000 1.00000000000000 0.50000000000000 1.00000000000000 
8
1.00000000000000 0.00000000000000 0.10000000000000 0.00000000000000 0.00000000000000 1.00000000000000 0.90000000000000 1.00000000000000 
4
0.97000000000000 0.00000000000000 0.03000000000000 1.00000000000000 
2
0.99950000000000 0.00050000000000 
2
0.99995000000000 0.00005000000000 
2
0.99997000000000 0.00003000000000 
2
0.99996000000000 0.00004000000000 
2
0.99990000000000 0.00010000000000 
2
0.99920000000000 0.00080000000000 
2
0.99990000000000 0.00010000000000 
2
0.99990000000000 0.00010000000000 
2
0.99999919000000 0.00000081000000 
2
0.99990000000000 0.00010000000000 
2
0.99975000000000 0.00025000000000 
2
0.99998000000000 0.00002000000000 
2
0.99999300000000 0.00000700000000 
2
0.99810000000000 0.00190000000000 
2
0.99990000000000 0.00010000000000 
2
0.99990000000000 0.00010000000000 
2
0.99999996000000 0.00000004000000 
2
0.99989000000000 0.00011000000000 
2
0.99975000000000 0.00025000000000 
2
0.99999860000000 0.00000140000000 
2
0.99995000000000 0.00005000000000 
2
0.99990000000000 0.00010000000000 
2
0.99997658000000 0.00002342000000 
2
0.99990000000000 0.00010000000000 
2
0.99998000000000 0.00002000000000 
2
0.99994000000000 0.00006000000000 
2
0.99960000000000 0.00040000000000 
2
0.99998000000000 0.00002000000000 
2
0.99999000000000 0.00001000000000 
2
0.99974000000000 0.00026000000000 
2
0.99999800000000 0.00000200000000 
2
0.99990000000000 0.00010000000000 
2
0.99999989000000 0.00000011000000 
2
0.99998000000000 0.00002000000000 
2
0.99980000000000 0.00020000000000 
2
0.99999000000000 0.00001000000000 
2
0.99999874000000 0.00000126000000 
2
0.99996000000000 0.00004000000000 
2
0.99990000000000 0.00010000000000 
2
0.99999999000000 0.00000001000000 
2
0.99999983000000 0.00000017000000 
2
0.99950000000000 0.00050000000000 
2
0.99990000000000 0.00010000000000 
2
0.99999989000000 0.00000011000000 
2
0.99992000000000 0.00008000000000 
2
0.99997000000000 0.00003000000000 
2
0.99989000000000 0.00011000000000 
2
0.99989000000000 0.00011000000000 
2
0.99960000000000 0.00040000000000 
2
0.99999994000000 0.00000006000000 
2
0.99995000000000 0.00005000000000 
2
0.99997300000000 0.00002700000000 
2
0.99990000000000 0.00010000000000 
2
0.99999900000000 0.00000100000000 
2
0.99990000000000 0.00010000000000 
2
0.99999000000000 0.00001000000000 
2
0.99999999000000 0.00000001000000 
2
0.99990000000000 0.00010000000000 
2
0.99900000000000 0.00100000000000 
2
0.99991000000000 0.00009000000000 
2
0.99998000000000 0.00002000000000 
2
0.99986000000000 0.00014000000000 
2
0.99982000000000 0.00018000000000 
2
0.99950000000000 0.00050000000000 
2
0.99990000000000 0.00010000000000 
2
0.99999000000000 0.00001000000000 
2
0.99999712000000 0.00000288000000 
2
0.99950000000000 0.00050000000000 
2
0.99922000000000 0.00078000000000 
2
0.99995000000000 0.00005000000000 
2
0.99980000000000 0.00020000000000 
2
0.99910000000000 0.00090000000000 
2
0.99990000000000 0.00010000000000 
2
0.99998000000000 0.00002000000000 
2
0.99990000000000 0.00010000000000 
2
0.99999000000000 0.00001000000000 
2
0.99990000000000 0.00010000000000 
2
0.99980000000000 0.00020000000000 
2
0.99970000000000 0.00030000000000 
2
0.99990000000000 0.00010000000000 
2
0.99960000000000 0.00040000000000 
2
0.99900000000000 0.00100000000000 
2
0.99900000000000 0.00100000000000 
2
0.99991000000000 0.00009000000000 
2
0.99800000000000 0.00200000000000 
2
0.99960000000000 0.00040000000000 
2
0.99996000000000 0.00004000000000 
2
0.99999996000000 0.00000004000000 
2
0.99999999000000 0.00000001000000 
2
0.99999996000000 0.00000004000000 
2
0.99990000000000 0.00010000000000 
2
0.99985000000000 0.00015000000000 
2
0.99999000000000 0.00001000000000 
2
0.99990000000000 0.00010000000000 
2
0.99950000000000 0.00050000000000 
2
0.99997709000000 0.00002291000000 
2
0.99960000000000 0.00040000000000 
2
0.99950000000000 0.00050000000000 
2
0.99999900000000 0.00000100000000 
2
0.99850000000000 0.00150000000000 
2
0.99995000000000 0.00005000000000 
2
0.99990000000000 0.00010000000000 
2
0.99999999000000 0.00000001000000 
2
0.99950000000000 0.00050000000000 
2
0.99978400000000 0.00021600000000 
2
0.99997997000000 0.00002003000000 
2
0.99950000000000 0.00050000000000 
2
0.99990000000000 0.00010000000000 
2
0.99970000000000 0.00030000000000 
2
0.99999938000000 0.00000062000000 
2
0.99950000000000 0.00050000000000 
2
0.99990000000000 0.00010000000000 
2
0.99995000000000 0.00005000000000 
2
0.99999988000000 0.00000012000000 
2
0.99998000000000 0.00002000000000 
2
0.99999972000000 0.00000028000000 
2
0.99995000000000 0.00005000000000 
2
0.99999141000000 0.00000859000000 
2
0.99992000000000 0.00008000000000 
2
0.99999900000000 0.00000100000000 
2
0.99970000000000 0.00030000000000 
2
0.99999718000000 0.00000282000000 
2
0.99999000000000 0.00001000000000 
2
0.99999998000000 0.00000002000000 
2
0.99990000000000 0.00010000000000 
2
0.99990000000000 0.00010000000000 
2
0.99940000000000 0.00060000000000 
2
0.99990000000000 0.00010000000000 
2
0.99990668000000 0.00009332000000 
2
0.99989000000000 0.00011000000000 
2
0.99990000000000 0.00010000000000 
2
0.99996880000000 0.00003120000000 
2
0.99999946000000 0.00000054000000 
2
0.99999900000000 0.00000100000000 
2
0.99990000000000 0.00010000000000 
2
0.99997000000000 0.00003000000000 
2
0.99999900000000 0.00000100000000 
2
0.99975000000000 0.00025000000000 
2
0.99999999000000 0.00000001000000 
2
0.99999000000000 0.00001000000000 
2
0.99999986000000 0.00000014000000 
2
0.99980000000000 0.00020000000000 
2
0.99995267000000 0.00004733000000 
2
0.99990000000000 0.00010000000000 
2
0.99999000000000 0.00001000000000 
2
0.99900000000000 0.00100000000000 
2
0.99995000000000 0.00005000000000 
2
0.99994000000000 0.00006000000000 
2
0.99991000000000 0.00009000000000 
2
0.99991000000000 0.00009000000000 
2
0.99900000000000 0.00100000000000 
2
0.99990000000000 0.00010000000000 
2
0.99999000000000 0.00001000000000 
2
0.99999971000000 0.00000029000000 
2
0.99999994000000 0.00000006000000 
2
0.99980000000000 0.00020000000000 
2
0.99790000000000 0.00210000000000 
2
0.99999400000000 0.00000600000000 
2
0.99980000000000 0.00020000000000 
2
0.99998000000000 0.00002000000000 
2
0.99990000000000 0.00010000000000 
2
0.99960000000000 0.00040000000000 
2
0.99997000000000 0.00003000000000 
2
0.99994000000000 0.00006000000000 
2
0.99999000000000 0.00001000000000 
2
0.99997000000000 0.00003000000000 
2
0.99999900000000 0.00000100000000 
2
0.99999999000000 0.00000001000000 
2
0.99996000000000 0.00004000000000 
2
0.99999900000000 0.00000100000000 
2
0.99990000000000 0.00010000000000 
2
0.99990000000000 0.00010000000000 
2
0.99999999000000 0.00000001000000 
2
0.99998000000000 0.00002000000000 
2
0.99999990000000 0.00000010000000 
2
0.99989000000000 0.00011000000000 
2
0.99999990000000 0.00000010000000 
2
0.99997000000000 0.00003000000000 
2
0.99950000000000 0.00050000000000 
2
0.99958500000000 0.00041500000000 
2
0.99990000000000 0.00010000000000 
2
0.99990000000000 0.00010000000000 
2
0.99900000000000 0.00100000000000 
2
0.99990000000000 0.00010000000000 
2
0.99999950000000 0.00000050000000 
